
  20    0


   0  10 2 3 4 5 6 7 8 17 18 19 
   6   5 16 15 14 12 9 
   3   3 12 11 9 
   6   2 13 10 
   5   2 11 9 
   6   1 10 
   3   1 9 
   4   1 9 
   6   1 20
   4   1 20
  10   1 20
   8   1 20
  10   1 20
   2   1 20
   1   1 20
   8   1 20
   5   1 20
   2   1 20
   8   1 20
   0   0 
